17	4	3
33	23	24	27	18	24	25	
0	0	0	0	0	9	4	8	8	10	2	3	2	3	4
7	6	5	4	0	4	8	3	6	5	7	3	8	10	13
9	5	4	6	5	4	6	10	10	7	8	3	5	9	17
1	4	7	1	4	2	7	1	3	2	9	3	6	16	17
1	5	2	0	10	2	5	2	2	10	3	2	10	17
225	8	8	4	5	6	9	7	3	7	6	2	7	17
200	7	0	7	0	5	10	3	8	6	8	1	17
75	7	7	8	5	5	9	3	4	9	10	2	11	12
25	1	0	6	4	1	10	6	1	2	7	2	14	17
250	7	2	0	0	9	4	1	1	5	1	1	17
225	6	8	8	6	3	10	10	9	3	6	1	17
250	5	4	2	2	4	8	6	7	6	1	2	15	17
2	1	9	1	10	5	10	10	8	3	8	1	17
1	4	7	0	7	7	4	7	2	5	9	1	17
5	3	0	4	0	9	4	3	9	4	7	1	17
3	0	0	0	7	10	6	7	9	5	10	1	17
0	0	0	0	0	4	9	7	10	5	3	0
